mode: 3, sl: 0, sr: 0, revisit: 1, loop: 1
Jetsuite speed factor: 9.35
Solving mode: 3-indexed base
Solving mode: 3-indexed base
Instance name: /home/orlab/rv-fstsp2/rv-fstsp-jetsuite/Niels_instances/output_with_jetsuite//uniform-53-n10-maxradius-60.txt
---------------------------------------------------------------
Current config:
- Number of threads = -1
- Drone endurance = 9999
- SL = 0
- SR = 0
- Allow loop = 1
- Allow revisit = 1
- Allow multi-visit drone = 0
- Use TSP optimal solution as warmstart: = 0
- Use cutting plane method: = 0
- Use CPLEX conflict refiner: = 0
- Debug info: = 0
- Jetsuit enabled: = 0
---------------------------------------------------------------
Version identifier: 22.1.1.0 | 2022-11-28 | 9160aff4d
Tried aggregator 2 times.
MIP Presolve eliminated 1114 rows and 2180 columns.
MIP Presolve modified 1470 coefficients.
Aggregator did 10 substitutions.
Reduced MIP has 1248 rows, 3770 columns, and 30881 nonzeros.
Reduced MIP has 3751 binaries, 0 generals, 0 SOSs, and 0 indicators.
Presolve time = 0.04 sec. (45.09 ticks)
Found incumbent of value 90807.158478 after 0.06 sec. (67.97 ticks)
Probing fixed 54 vars, tightened 18 bounds.
Probing changed sense of 5 constraints.
Probing time = 0.15 sec. (186.97 ticks)
Cover probing fixed 0 vars, tightened 37 bounds.
Tried aggregator 2 times.
Detecting symmetries...
MIP Presolve eliminated 51 rows and 119 columns.
MIP Presolve modified 1779 coefficients.
Aggregator did 14 substitutions.
Reduced MIP has 1180 rows, 3637 columns, and 30209 nonzeros.
Reduced MIP has 3625 binaries, 0 generals, 0 SOSs, and 0 indicators.
Presolve time = 0.04 sec. (48.21 ticks)
Probing time = 0.01 sec. (7.93 ticks)
Cover probing fixed 0 vars, tightened 2 bounds.
Clique table members: 14700.
MIP emphasis: balance optimality and feasibility.
MIP search method: dynamic search.
Parallel mode: deterministic, using up to 20 threads.
Root relaxation solution time = 0.15 sec. (188.00 ticks)

        Nodes                                         Cuts/
   Node  Left     Objective  IInf  Best Integer    Best Bound    ItCnt     Gap

*     0+    0                        90807.1585        6.5363            99.99%
      0     0       13.3950   121    90807.1585       13.3950       27   99.99%
*     0+    0                          135.2309       13.3950            90.09%
      0     0       29.3890   100      135.2309      Cuts: 19     2765   78.27%
      0     0       29.5010   129      135.2309      Cuts: 25     3356   78.18%
      0     0       29.5133   123      135.2309      Cuts: 35     3698   78.18%
      0     0       29.5192   174      135.2309      Cuts: 32     4686   78.17%
      0     0       29.5474   156      135.2309      Cuts: 31     4899   78.15%
Detecting symmetries...
      0     0       29.5484   177      135.2309      Cuts: 33     5179   78.15%
*     0+    0                          118.6098       29.5484            75.09%
      0     0       29.5510   183      118.6098      Cuts: 16     6058   75.09%
      0     0       29.5538   151      118.6098      Cuts: 26     6392   75.08%
      0     0       29.5565   166      118.6098      Cuts: 24     6647   75.08%
*     0+    0                          107.4295       29.5565            72.49%
Detecting symmetries...
      0     2       29.5565   140      107.4295       29.5565     6647   72.49%
Elapsed time = 3.54 sec. (2497.48 ticks, tree = 0.02 MB, solutions = 4)
      4     4       31.5209    79      107.4295       29.5565     8235   72.49%
    933    81        cutoff            107.4295       29.5565    47226   72.49%
   1828   188       77.9227    73      107.4295       29.5565    77264   72.49%
   2336   413      104.2143   132      107.4295       29.9355   112470   72.13%
   2844   766        cutoff            107.4295       31.2134   169961   70.95%
   3447  1104        cutoff            107.4295       31.2134   210732   70.95%
   4194  1555       74.2498    86      107.4295       31.2134   266530   70.95%
   4418  1755       88.1319    53      107.4295       31.2134   291700   70.95%
   4852  1849       94.6007    98      107.4295       31.2134   324337   70.95%

Performing restart 1

Repeating presolve.
Tried aggregator 2 times.
MIP Presolve eliminated 119 rows and 436 columns.
MIP Presolve modified 11576 coefficients.
Aggregator did 8 substitutions.
Reduced MIP has 1052 rows, 3193 columns, and 21457 nonzeros.
Reduced MIP has 3182 binaries, 0 generals, 0 SOSs, and 0 indicators.
Presolve time = 0.01 sec. (32.75 ticks)
Tried aggregator 2 times.
MIP Presolve eliminated 23 rows and 236 columns.
MIP Presolve modified 484 coefficients.
Aggregator did 3 substitutions.
Reduced MIP has 1026 rows, 2954 columns, and 19973 nonzeros.
Reduced MIP has 2943 binaries, 0 generals, 0 SOSs, and 0 indicators.
Presolve time = 0.01 sec. (21.14 ticks)
Tried aggregator 2 times.
MIP Presolve eliminated 44 rows and 250 columns.
MIP Presolve modified 540 coefficients.
Aggregator did 6 substitutions.
Reduced MIP has 976 rows, 2698 columns, and 18351 nonzeros.
Reduced MIP has 2687 binaries, 0 generals, 0 SOSs, and 0 indicators.
Presolve time = 0.01 sec. (20.12 ticks)
Tried aggregator 2 times.
MIP Presolve eliminated 64 rows and 260 columns.
MIP Presolve modified 688 coefficients.
Aggregator did 2 substitutions.
Reduced MIP has 910 rows, 2436 columns, and 16276 nonzeros.
Reduced MIP has 2425 binaries, 0 generals, 0 SOSs, and 0 indicators.
Presolve time = 0.02 sec. (28.03 ticks)
Tried aggregator 2 times.
MIP Presolve eliminated 1 rows and 31 columns.
MIP Presolve modified 11 coefficients.
Aggregator did 3 substitutions.
Reduced MIP has 906 rows, 2402 columns, and 16135 nonzeros.
Reduced MIP has 2391 binaries, 0 generals, 0 SOSs, and 0 indicators.
Presolve time = 0.01 sec. (18.58 ticks)
Represolve time = 0.33 sec. (545.15 ticks)
   6629     0       30.2955   173      107.4295      Cuts: 30   533851   60.52%
   6629     0       31.2839   169      107.4295      Cuts: 59   536580   60.52%
   6629     0       31.3423   178      107.4295      Cuts: 75   537197   60.52%
   6629     0       31.3701   123      107.4295       Cuts: 4   537391   60.52%
   6629     0       31.3905   151      107.4295      Cuts: 53   537862   60.52%
   6629     0       34.8594   110      107.4295      Cuts: 25   538643   60.52%
   6629     0       34.8594   141      107.4295      Cuts: 52   539114   60.52%
   6629     0       34.8594    84      107.4295       Cuts: 7   539166   60.52%
   6629     0       34.8594   144      107.4295      Cuts: 72   539641   60.52%
   6629     2       34.8594   111      107.4295       42.4154   539641   60.52%
Elapsed time = 8.63 sec. (9093.05 ticks, tree = 0.02 MB, solutions = 4)
   6677    27       61.7454    68      107.4295       42.4154   549227   60.52%
   7249   197       71.7732    90      107.4295       47.5434   617038   55.74%
   9031  1148       58.9354   122      107.4295       51.2134   777120   52.33%
  12170  3015       72.4574   114      107.4295       62.2870   981864   42.02%
  15868  4970       86.3542    71      107.4295       71.1358  1178112   33.78%
  17089  4892       85.0056    66      107.4295       72.3298  1300310   32.67%
  20948  6152        cutoff            107.4295       80.7435  1496273   24.84%
  25120  7038        cutoff            107.4295       84.2385  1690233   21.59%
  29792  6515        cutoff            107.4295       88.0726  1943141   18.02%
  33494  3795        cutoff            107.4295       91.9289  2127983   14.43%
Elapsed time = 22.83 sec. (18644.62 ticks, tree = 5.30 MB, solutions = 4)

GUB cover cuts applied:  1
Clique cuts applied:  7
Cover cuts applied:  15
Implied bound cuts applied:  14
Flow cuts applied:  1
Mixed integer rounding cuts applied:  33
Zero-half cuts applied:  5
Lift and project cuts applied:  1
Gomory fractional cuts applied:  5

Root node processing (before b&c):
  Real time             =    3.36 sec. (2451.64 ticks)
Parallel b&c, 20 threads:
  Real time             =   20.06 sec. (16594.76 ticks)
  Sync time (average)   =    6.91 sec.
  Wait time (average)   =    0.01 sec.
                          ------------
Total (root+branch&cut) =   23.43 sec. (19046.41 ticks)
Solve time: 23.434
Objective Value: 107.43

Truck Schedule: 
Stage 1: Truck arrived node 0 at 0
	Truck departed from node 0 to node 2 at 0
Stage 2: Truck arrived node 2 at 14.6771
	Truck departed from node 2 to node 2 at 14.6771
Stage 3: Truck arrived node 2 at 14.6771
	Truck departed from node 2 to node 2 at 33.7821
Stage 4: Truck arrived node 2 at 33.7821
	Truck departed from node 2 to node 2 at 65.0231
Stage 5: Truck arrived node 2 at 65.0231
	Truck departed from node 2 to node 2 at 82.0231
Stage 6: Truck arrived node 2 at 82.0231
	Truck departed from node 2 to node 10 at 92.7524
Stage 7: Truck arrived node 10 at 107.43

Truck arc:
Stage 1: 0 -> 2
Stage 2: 2 -> 2
Stage 3: 2 -> 2
Stage 4: 2 -> 2
Stage 5: 2 -> 2
Stage 6: 2 -> 10

Drone Schedule: 
Stage 2 to 3: Drone departed from node 2 visited customer 9 and arrived to node 2
	 Departed at: 14.6771
	 Visited at: 24.2296
	 Arrived at: 33.7821
Added drone operation: position 1 (node 2) -> customer 9 -> position 2 (node 2)
Stage 3 to 4: Drone departed from node 2 visited customer 1 and arrived to node 2
	 Departed at: 33.7821
	 Visited at: 49.4026
	 Arrived at: 65.0231
Added drone operation: position 2 (node 2) -> customer 1 -> position 3 (node 2)
Stage 4 to 5: Drone departed from node 2 visited customer 4 and arrived to node 2
	 Departed at: 65.0231
	 Visited at: 73.5231
	 Arrived at: 82.0231
Added drone operation: position 3 (node 2) -> customer 4 -> position 4 (node 2)
Stage 5 to 6: Drone departed from node 2 visited customer 6 and arrived to node 2
	 Departed at: 82.0231
	 Visited at: 87.0231
	 Arrived at: 92.0231
Added drone operation: position 4 (node 2) -> customer 6 -> position 5 (node 2)

Jetsuite Schedule: 
Stage 2: Jetsuite launched from node 2 served customer 7 and recovered at node 2
Stage 3: Jetsuite launched from node 2 served customer 3 and recovered at node 2
Stage 4: Jetsuite launched from node 2 served customer 5 and recovered at node 2
Stage 5: Jetsuite launched from node 2 served customer 8 and recovered at node 2
x[0][2][1] = 1
x[2][2][2] = 1
x[2][2][3] = 1
x[2][2][4] = 1
x[2][2][5] = 1
x[2][10][6] = 1

Drone Variables (V[i][h][k]):
Y[2][1][3] = 1
Y[2][4][4] = 1
Y[2][6][5] = 1
Y[2][9][2] = 1

Jetsuite Variables (U[i][h][k]):
U[2][3][3] = 1
U[2][5][4] = 1
U[2][7][2] = 1
U[2][8][5] = 1

Checking the feasibility of the solution...
Time schedule is not given, recalculating...
Current objective: 107.43
Recalculated objective: 106.7
